NAME : cutter.35514.tour
COMMENT : Length = 35514
COMMENT : Found by LKH [Keld Helsgaun] Fri Jan  4 22:49:14 2013
TYPE : TOUR
DIMENSION : 126
TOUR_SECTION
1
93
101
104
29
59
108
21
125
53
33
41
87
56
64
105
42
102
73
9
82
70
111
62
106
120
35
85
71
7
114
52
86
27
75
94
54
116
119
124
103
2
99
4
79
83
100
123
98
11
6
65
67
77
72
95
110
23
39
36
20
113
8
61
44
51
40
81
89
10
117
31
66
16
46
57
28
30
97
17
115
45
25
80
118
90
5
107
126
12
19
43
15
88
91
37
55
68
58
47
48
96
92
78
60
122
38
84
63
26
74
22
24
112
32
34
13
14
49
69
109
3
76
50
18
121
-1
EOF
